instances/knapsack/discrete_knapsack_uncertainty/knapsack_130_3.lp
\ Model knapsack_130_3
\ LP format - for model browsing. Use MPS format to capture full model detail.
\ Signature: 0x8c644a484ac146d4
Minimize
  - 9 x[0] - 66 x[1] - 19 x[2] - 83 x[3] - 25 x[4] - 48 x[5] - 85 x[6]
   - 51 x[7] - 62 x[8] - 38 x[9] - 94 x[10] - 34 x[11] - 2 x[12] - x[13]
   - 94 x[14] - 23 x[15] - 9 x[16] - 25 x[17] - 62 x[18] - 97 x[19]
   - 9 x[20] - 50 x[21] - 27 x[22] - 63 x[23] - 92 x[24] - 70 x[25]
   - 71 x[26] - 87 x[27] - 77 x[28] - 76 x[29] - 92 x[30] - 23 x[31]
   - 19 x[32] - 94 x[33] - 83 x[34] - 20 x[35] - 12 x[36] - 62 x[37]
   - 46 x[38] - 99 x[39] - 95 x[40] - 17 x[41] - 77 x[42] - 22 x[43]
   - 10 x[44] - 2 x[45] - 60 x[46] - 80 x[47] - 20 x[48] - 89 x[49]
   - 70 x[50] - 14 x[51] - 22 x[52] - 80 x[53] - 27 x[54] - x[55]
   - 94 x[56] - 31 x[57] - 39 x[58] - 54 x[59] - 79 x[60] - 93 x[61]
   - 89 x[62] - x[63] - 26 x[64] - 16 x[65] - 56 x[66] - 21 x[67]
   - 36 x[68] - 89 x[69] - 52 x[70] - 66 x[71] - 44 x[72] - 5 x[73]
   - 74 x[74] - 85 x[75] - 25 x[76] - 16 x[77] - 51 x[78] - 71 x[79]
   - 78 x[80] - x[81] - 77 x[82] - 61 x[83] - 12 x[84] - 80 x[85]
   - 41 x[86] - 70 x[87] - 59 x[88] - 14 x[89] - 89 x[90] - x[91] - 9 x[92]
   - 32 x[93] - 19 x[94] - 54 x[95] - 40 x[96] - 99 x[97] - 48 x[98]
   - 28 x[99] - 8 x[100] - 77 x[101] - 18 x[102] - 89 x[103] - 22 x[104]
   - 54 x[105] - 93 x[106] - 76 x[107] - 81 x[108] - 16 x[109] - 29 x[110]
   - x[111] - 57 x[112] - 23 x[113] - 25 x[114] - 44 x[115] - 34 x[116]
   - 88 x[117] - 93 x[118] - 18 x[119] - 21 x[120] - 54 x[121] - 57 x[122]
   - 66 x[123] - 55 x[124] - 68 x[125] - 36 x[126] - x[127] - 19 x[128]
   - 24 x[129]
Subject To
 primal_upper: 55 x[0] + 23 x[1] + 29 x[2] + 82 x[3] + 15 x[4] + 29 x[5]
   + 80 x[6] + 35 x[7] + 76 x[8] + 61 x[9] + 43 x[10] + 30 x[11] + 3 x[12]
   + 23 x[13] + 64 x[14] + 4 x[15] + 40 x[16] + 55 x[17] + 56 x[18]
   + 13 x[19] + 68 x[20] + 51 x[21] + 67 x[22] + 46 x[23] + 64 x[24]
   + 95 x[25] + 29 x[26] + 23 x[27] + 81 x[28] + 26 x[29] + 21 x[30]
   + 35 x[31] + 63 x[32] + 12 x[33] + 7 x[34] + 84 x[35] + 59 x[36]
   + 88 x[37] + 91 x[38] + 74 x[39] + 50 x[40] + 21 x[41] + 41 x[42]
   + 9 x[43] + 90 x[44] + 58 x[45] + 89 x[46] + 57 x[47] + 10 x[48]
   + 59 x[49] + 46 x[50] + 91 x[51] + 12 x[52] + 71 x[53] + 24 x[54]
   + 95 x[55] + 12 x[56] + 2 x[57] + 55 x[58] + 73 x[59] + 24 x[60]
   + 58 x[61] + 23 x[62] + 62 x[63] + 63 x[64] + 35 x[65] + 92 x[66]
   + 98 x[67] + 11 x[68] + 65 x[69] + 13 x[70] + 97 x[71] + 21 x[72]
   + 34 x[73] + 75 x[74] + 32 x[75] + 26 x[76] + 50 x[77] + 40 x[78]
   + 6 x[79] + 41 x[80] + 21 x[81] + 18 x[82] + 5 x[83] + 49 x[84]
   + 97 x[85] + 87 x[86] + 27 x[87] + 29 x[88] + 10 x[89] + 100 x[90]
   + 44 x[91] + 68 x[92] + 39 x[93] + 43 x[94] + 96 x[95] + 12 x[96]
   + 92 x[97] + 83 x[98] + 31 x[99] + 40 x[100] + 87 x[101] + x[102]
   + 27 x[103] + 32 x[104] + 45 x[105] + 42 x[106] + 22 x[107] + 70 x[108]
   + 52 x[109] + 78 x[110] + 66 x[111] + 100 x[112] + 84 x[113] + 48 x[114]
   + 6 x[115] + 66 x[116] + 48 x[117] + 12 x[118] + 16 x[119] + 91 x[120]
   + 36 x[121] + 63 x[122] + 42 x[123] + 48 x[124] + 74 x[125] + 15 x[126]
   + 47 x[127] + 66 x[128] + 82 x[129] + 5.5 r[0] + 2.3 r[1] + 2.9 r[2]
   + 8.2 r[3] + 1.5 r[4] + 2.9 r[5] + 8 r[6] + 3.5 r[7] + 7.6 r[8]
   + 6.1 r[9] + 4.3 r[10] + 3 r[11] + 0.3 r[12] + 2.3 r[13] + 6.4 r[14]
   + 0.4 r[15] + 4 r[16] + 5.5 r[17] + 5.6 r[18] + 1.3 r[19] + 6.8 r[20]
   + 5.1 r[21] + 6.7 r[22] + 4.6 r[23] + 6.4 r[24] + 9.5 r[25] + 2.9 r[26]
   + 2.3 r[27] + 8.1 r[28] + 2.6 r[29] + 2.1 r[30] + 3.5 r[31] + 6.3 r[32]
   + 1.2 r[33] + 0.7 r[34] + 8.4 r[35] + 5.9 r[36] + 8.8 r[37] + 9.1 r[38]
   + 7.4 r[39] + 5 r[40] + 2.1 r[41] + 4.1 r[42] + 0.9 r[43] + 9 r[44]
   + 5.8 r[45] + 8.9 r[46] + 5.7 r[47] + r[48] + 5.9 r[49] + 4.6 r[50]
   + 9.1 r[51] + 1.2 r[52] + 7.1 r[53] + 2.4 r[54] + 9.5 r[55] + 1.2 r[56]
   + 0.2 r[57] + 5.5 r[58] + 7.3 r[59] + 2.4 r[60] + 5.8 r[61] + 2.3 r[62]
   + 6.2 r[63] + 6.3 r[64] + 3.5 r[65] + 9.2 r[66] + 9.8 r[67] + 1.1 r[68]
   + 6.5 r[69] + 1.3 r[70] + 9.7 r[71] + 2.1 r[72] + 3.4 r[73] + 7.5 r[74]
   + 3.2 r[75] + 2.6 r[76] + 5 r[77] + 4 r[78] + 0.6 r[79] + 4.1 r[80]
   + 2.1 r[81] + 1.8 r[82] + 0.5 r[83] + 4.9 r[84] + 9.7 r[85] + 8.7 r[86]
   + 2.7 r[87] + 2.9 r[88] + r[89] + 10 r[90] + 4.4 r[91] + 6.8 r[92]
   + 3.9 r[93] + 4.3 r[94] + 9.6 r[95] + 1.2 r[96] + 9.2 r[97] + 8.3 r[98]
   + 3.1 r[99] + 4 r[100] + 8.7 r[101] + 0.1 r[102] + 2.7 r[103]
   + 3.2 r[104] + 4.5 r[105] + 4.2 r[106] + 2.2 r[107] + 7 r[108]
   + 5.2 r[109] + 7.8 r[110] + 6.6 r[111] + 10 r[112] + 8.4 r[113]
   + 4.8 r[114] + 0.6 r[115] + 6.6 r[116] + 4.8 r[117] + 1.2 r[118]
   + 1.6 r[119] + 9.1 r[120] + 3.6 r[121] + 6.3 r[122] + 4.2 r[123]
   + 4.8 r[124] + 7.4 r[125] + 1.5 r[126] + 4.7 r[127] + 6.6 r[128]
   + 8.2 r[129] <= 598
 primal_lower: 4.5611703862475 x[0] + 2.287279096278156 x[1]
   + 2.878837067406798 x[2] + 3.183461413089002 x[3]
   + 0.3434844277660919 x[4] + 0.3782798317275702 x[5]
   + 1.5003042802243 x[6] + 0.0380663750343908 x[7]
   + 3.668578869100269 x[8] + 2.929756137313154 x[9]
   + 3.71143308137961 x[10] + 4.355472365009716 x[11]
   + 3.574603220599611 x[12] + 3.334238808658785 x[13]
   + 2.169843821409823 x[14] + 0.7454979620826591 x[15]
   + 3.947122414386569 x[16] + 2.767626107165731 x[17]
   + 1.090741358417408 x[18] + 0.6224108935850784 x[19]
   + 3.49681789996889 x[20] + 1.808429011823791 x[21]
   + 2.07194175498784 x[22] + 3.452863385087058 x[23]
   + 1.531985246707295 x[24] + 4.362423000690219 x[25]
   + 3.779888506742809 x[26] + 3.294262289980555 x[27]
   + 1.298004568674194 x[28] + 1.339333676265087 x[29]
   + 1.949015595737311 x[30] + 4.264937495194167 x[31]
   + 0.6128268074201372 x[32] + 0.0327228849198525 x[33]
   + 1.62979984029994 x[34] + 4.500295936600796 x[35]
   + 2.012146551660992 x[36] + 2.24249824303989 x[37]
   + 2.448216272229456 x[38] + 0.4874336676804482 x[39]
   + 2.715391743037323 x[40] + 0.8038569494959751 x[41]
   + 3.869892386565768 x[42] + 0.1579264293285164 x[43]
   + 0.00588597018196224 x[44] + 4.426470545689985 x[45]
   + 3.310986275729995 x[46] + 0.2950334342987891 x[47]
   + 3.497607860985416 x[48] + 4.445034896965034 x[49]
   + 2.845809352382501 x[50] + 3.265139746538412 x[51]
   + 0.5381975979400022 x[52] + 0.8095055184238631 x[53]
   + 3.570182386306818 x[54] + 0.3744085086147229 x[55]
   + 0.0891222853483458 x[56] + 4.625541495814528 x[57]
   + 0.7449587962237412 x[58] + 0.6778928198777235 x[59]
   + 2.463749465931229 x[60] + 0.9431618512195905 x[61]
   + 0.5323499410617173 x[62] + 4.237936605775712 x[63]
   + 4.016782936529608 x[64] + 0.8548329604645454 x[65]
   + 0.2128024470573081 x[66] + 3.728256190856343 x[67]
   + 3.891024868491082 x[68] + 2.57767657452281 x[69]
   + 1.961249887253086 x[70] + 3.469477071849918 x[71]
   + 4.38128901872999 x[72] + 2.630998408361176 x[73]
   + 4.595344073967454 x[74] + 3.801891134469915 x[75]
   + 1.01483933271678 x[76] + 0.766891201202935 x[77]
   + 0.6811035135076997 x[78] + 2.511593144220558 x[79]
   + 4.086304035867375 x[80] + 0.3510122773093275 x[81]
   + 3.30593239082059 x[82] + 1.901718746996931 x[83]
   + 3.029862074739079 x[84] + 0.8279090609046473 x[85]
   + 3.186456245677857 x[86] + 2.327565099460434 x[87]
   + 1.973594117531995 x[88] + 2.058675443540639 x[89]
   + 3.349978851400958 x[90] + 3.34268293959333 x[91]
   + 3.688958177263161 x[92] + 3.162775073324079 x[93]
   + 1.537835947989805 x[94] + 1.332058155900097 x[95]
   + 4.04857515350964 x[96] + 4.414850408603914 x[97]
   + 2.911741876576474 x[98] + 4.419923739839023 x[99]
   + 1.627638009953916 x[100] + 1.749418425728387 x[101]
   + 2.365220533000676 x[102] + 3.790187251623128 x[103]
   + 0.6101881152780361 x[104] + 2.395516315985173 x[105]
   + 0.3156680424185347 x[106] + 0.5162920865031112 x[107]
   + 3.417136089539563 x[108] + 0.3189101409306253 x[109]
   + 3.439341804352515 x[110] + 4.373892738380682 x[111]
   + 4.522219863729719 x[112] + 1.832483266452852 x[113]
   + 2.802250740022985 x[114] + 2.611163775445035 x[115]
   + 1.212096389096634 x[116] + 1.399823648982337 x[117]
   + 1.417495775741824 x[118] + 0.6286121229253885 x[119]
   + 4.630051300519378 x[120] + 4.506945285908984 x[121]
   + 3.349821011558506 x[122] + 2.790967915252462 x[123]
   + 2.761675246748795 x[124] + 0.1114626225930301 x[125]
   + 1.261411035685402 x[126] + 2.017481663477247 x[127]
   + 2.33711357685765 x[128] + 4.030489415720245 x[129] + 84 u[0] + 48 u[1]
   + 22 u[2] + 71 u[3] + 32 u[4] + 26 u[5] + 53 u[6] + 76 u[7] + 45 u[8]
   + 98 u[9] + 56 u[10] + 55 u[11] + 20 u[12] + 96 u[13] + 57 u[14]
   + 13 u[15] + 77 u[16] + 12 u[17] + 29 u[18] + 86 u[19] + 89 u[20]
   + 32 u[21] + 52 u[22] + 11 u[23] + 45 u[24] + 92 u[25] + 46 u[26]
   + 28 u[27] + 94 u[28] + 63 u[29] + 30 u[30] + 4 u[31] + 88 u[32]
   + 17 u[33] + 12 u[34] + 73 u[35] + 48 u[36] + 65 u[37] + 40 u[38]
   + 83 u[39] + 35 u[40] + 86 u[41] + 86 u[42] + 46 u[43] + 83 u[44]
   + 71 u[45] + 86 u[46] + 26 u[47] + 23 u[48] + 48 u[49] + 39 u[50]
   + 24 u[51] + 85 u[52] + 12 u[53] + 81 u[54] + 76 u[55] + u[56]
   + 11 u[57] + 44 u[58] + 6 u[59] + 25 u[60] + 11 u[61] + 68 u[62]
   + 43 u[63] + 44 u[64] + 8 u[65] + 17 u[66] + 63 u[67] + 88 u[68]
   + 18 u[69] + 18 u[70] + 42 u[71] + 26 u[72] + 23 u[73] + 88 u[74]
   + 21 u[75] + 75 u[76] + 91 u[77] + u[78] + 75 u[79] + 70 u[80]
   + 42 u[81] + 47 u[82] + 74 u[83] + 90 u[84] + 30 u[85] + 84 u[86]
   + 100 u[87] + 78 u[88] + 23 u[89] + 69 u[90] + 37 u[91] + 97 u[92]
   + 24 u[93] + 96 u[94] + 29 u[95] + 77 u[96] + 53 u[97] + 36 u[98]
   + 24 u[99] + 77 u[100] + 4 u[101] + 10 u[102] + 44 u[103] + 93 u[104]
   + 78 u[105] + 23 u[106] + 7 u[107] + 19 u[108] + 65 u[109] + 31 u[110]
   + 15 u[111] + 37 u[112] + 33 u[113] + 5 u[114] + 87 u[115] + 23 u[116]
   + 25 u[117] + 65 u[118] + 73 u[119] + 80 u[120] + 85 u[121] + 44 u[122]
   + 27 u[123] + 49 u[124] + 35 u[125] + 20 u[126] + 20 u[127] + 3 u[128]
   + 87 u[129] <= 38066
 mccormick1[0]: - u[0] + r[0] <= 0
 mccormick1[1]: - u[1] + r[1] <= 0
 mccormick1[2]: - u[2] + r[2] <= 0
 mccormick1[3]: - u[3] + r[3] <= 0
 mccormick1[4]: - u[4] + r[4] <= 0
 mccormick1[5]: - u[5] + r[5] <= 0
 mccormick1[6]: - u[6] + r[6] <= 0
 mccormick1[7]: - u[7] + r[7] <= 0
 mccormick1[8]: - u[8] + r[8] <= 0
 mccormick1[9]: - u[9] + r[9] <= 0
 mccormick1[10]: - u[10] + r[10] <= 0
 mccormick1[11]: - u[11] + r[11] <= 0
 mccormick1[12]: - u[12] + r[12] <= 0
 mccormick1[13]: - u[13] + r[13] <= 0
 mccormick1[14]: - u[14] + r[14] <= 0
 mccormick1[15]: - u[15] + r[15] <= 0
 mccormick1[16]: - u[16] + r[16] <= 0
 mccormick1[17]: - u[17] + r[17] <= 0
 mccormick1[18]: - u[18] + r[18] <= 0
 mccormick1[19]: - u[19] + r[19] <= 0
 mccormick1[20]: - u[20] + r[20] <= 0
 mccormick1[21]: - u[21] + r[21] <= 0
 mccormick1[22]: - u[22] + r[22] <= 0
 mccormick1[23]: - u[23] + r[23] <= 0
 mccormick1[24]: - u[24] + r[24] <= 0
 mccormick1[25]: - u[25] + r[25] <= 0
 mccormick1[26]: - u[26] + r[26] <= 0
 mccormick1[27]: - u[27] + r[27] <= 0
 mccormick1[28]: - u[28] + r[28] <= 0
 mccormick1[29]: - u[29] + r[29] <= 0
 mccormick1[30]: - u[30] + r[30] <= 0
 mccormick1[31]: - u[31] + r[31] <= 0
 mccormick1[32]: - u[32] + r[32] <= 0
 mccormick1[33]: - u[33] + r[33] <= 0
 mccormick1[34]: - u[34] + r[34] <= 0
 mccormick1[35]: - u[35] + r[35] <= 0
 mccormick1[36]: - u[36] + r[36] <= 0
 mccormick1[37]: - u[37] + r[37] <= 0
 mccormick1[38]: - u[38] + r[38] <= 0
 mccormick1[39]: - u[39] + r[39] <= 0
 mccormick1[40]: - u[40] + r[40] <= 0
 mccormick1[41]: - u[41] + r[41] <= 0
 mccormick1[42]: - u[42] + r[42] <= 0
 mccormick1[43]: - u[43] + r[43] <= 0
 mccormick1[44]: - u[44] + r[44] <= 0
 mccormick1[45]: - u[45] + r[45] <= 0
 mccormick1[46]: - u[46] + r[46] <= 0
 mccormick1[47]: - u[47] + r[47] <= 0
 mccormick1[48]: - u[48] + r[48] <= 0
 mccormick1[49]: - u[49] + r[49] <= 0
 mccormick1[50]: - u[50] + r[50] <= 0
 mccormick1[51]: - u[51] + r[51] <= 0
 mccormick1[52]: - u[52] + r[52] <= 0
 mccormick1[53]: - u[53] + r[53] <= 0
 mccormick1[54]: - u[54] + r[54] <= 0
 mccormick1[55]: - u[55] + r[55] <= 0
 mccormick1[56]: - u[56] + r[56] <= 0
 mccormick1[57]: - u[57] + r[57] <= 0
 mccormick1[58]: - u[58] + r[58] <= 0
 mccormick1[59]: - u[59] + r[59] <= 0
 mccormick1[60]: - u[60] + r[60] <= 0
 mccormick1[61]: - u[61] + r[61] <= 0
 mccormick1[62]: - u[62] + r[62] <= 0
 mccormick1[63]: - u[63] + r[63] <= 0
 mccormick1[64]: - u[64] + r[64] <= 0
 mccormick1[65]: - u[65] + r[65] <= 0
 mccormick1[66]: - u[66] + r[66] <= 0
 mccormick1[67]: - u[67] + r[67] <= 0
 mccormick1[68]: - u[68] + r[68] <= 0
 mccormick1[69]: - u[69] + r[69] <= 0
 mccormick1[70]: - u[70] + r[70] <= 0
 mccormick1[71]: - u[71] + r[71] <= 0
 mccormick1[72]: - u[72] + r[72] <= 0
 mccormick1[73]: - u[73] + r[73] <= 0
 mccormick1[74]: - u[74] + r[74] <= 0
 mccormick1[75]: - u[75] + r[75] <= 0
 mccormick1[76]: - u[76] + r[76] <= 0
 mccormick1[77]: - u[77] + r[77] <= 0
 mccormick1[78]: - u[78] + r[78] <= 0
 mccormick1[79]: - u[79] + r[79] <= 0
 mccormick1[80]: - u[80] + r[80] <= 0
 mccormick1[81]: - u[81] + r[81] <= 0
 mccormick1[82]: - u[82] + r[82] <= 0
 mccormick1[83]: - u[83] + r[83] <= 0
 mccormick1[84]: - u[84] + r[84] <= 0
 mccormick1[85]: - u[85] + r[85] <= 0
 mccormick1[86]: - u[86] + r[86] <= 0
 mccormick1[87]: - u[87] + r[87] <= 0
 mccormick1[88]: - u[88] + r[88] <= 0
 mccormick1[89]: - u[89] + r[89] <= 0
 mccormick1[90]: - u[90] + r[90] <= 0
 mccormick1[91]: - u[91] + r[91] <= 0
 mccormick1[92]: - u[92] + r[92] <= 0
 mccormick1[93]: - u[93] + r[93] <= 0
 mccormick1[94]: - u[94] + r[94] <= 0
 mccormick1[95]: - u[95] + r[95] <= 0
 mccormick1[96]: - u[96] + r[96] <= 0
 mccormick1[97]: - u[97] + r[97] <= 0
 mccormick1[98]: - u[98] + r[98] <= 0
 mccormick1[99]: - u[99] + r[99] <= 0
 mccormick1[100]: - u[100] + r[100] <= 0
 mccormick1[101]: - u[101] + r[101] <= 0
 mccormick1[102]: - u[102] + r[102] <= 0
 mccormick1[103]: - u[103] + r[103] <= 0
 mccormick1[104]: - u[104] + r[104] <= 0
 mccormick1[105]: - u[105] + r[105] <= 0
 mccormick1[106]: - u[106] + r[106] <= 0
 mccormick1[107]: - u[107] + r[107] <= 0
 mccormick1[108]: - u[108] + r[108] <= 0
 mccormick1[109]: - u[109] + r[109] <= 0
 mccormick1[110]: - u[110] + r[110] <= 0
 mccormick1[111]: - u[111] + r[111] <= 0
 mccormick1[112]: - u[112] + r[112] <= 0
 mccormick1[113]: - u[113] + r[113] <= 0
 mccormick1[114]: - u[114] + r[114] <= 0
 mccormick1[115]: - u[115] + r[115] <= 0
 mccormick1[116]: - u[116] + r[116] <= 0
 mccormick1[117]: - u[117] + r[117] <= 0
 mccormick1[118]: - u[118] + r[118] <= 0
 mccormick1[119]: - u[119] + r[119] <= 0
 mccormick1[120]: - u[120] + r[120] <= 0
 mccormick1[121]: - u[121] + r[121] <= 0
 mccormick1[122]: - u[122] + r[122] <= 0
 mccormick1[123]: - u[123] + r[123] <= 0
 mccormick1[124]: - u[124] + r[124] <= 0
 mccormick1[125]: - u[125] + r[125] <= 0
 mccormick1[126]: - u[126] + r[126] <= 0
 mccormick1[127]: - u[127] + r[127] <= 0
 mccormick1[128]: - u[128] + r[128] <= 0
 mccormick1[129]: - u[129] + r[129] <= 0
 mccormick2[0]: - x[0] + r[0] <= 0
 mccormick2[1]: - x[1] + r[1] <= 0
 mccormick2[2]: - x[2] + r[2] <= 0
 mccormick2[3]: - x[3] + r[3] <= 0
 mccormick2[4]: - x[4] + r[4] <= 0
 mccormick2[5]: - x[5] + r[5] <= 0
 mccormick2[6]: - x[6] + r[6] <= 0
 mccormick2[7]: - x[7] + r[7] <= 0
 mccormick2[8]: - x[8] + r[8] <= 0
 mccormick2[9]: - x[9] + r[9] <= 0
 mccormick2[10]: - x[10] + r[10] <= 0
 mccormick2[11]: - x[11] + r[11] <= 0
 mccormick2[12]: - x[12] + r[12] <= 0
 mccormick2[13]: - x[13] + r[13] <= 0
 mccormick2[14]: - x[14] + r[14] <= 0
 mccormick2[15]: - x[15] + r[15] <= 0
 mccormick2[16]: - x[16] + r[16] <= 0
 mccormick2[17]: - x[17] + r[17] <= 0
 mccormick2[18]: - x[18] + r[18] <= 0
 mccormick2[19]: - x[19] + r[19] <= 0
 mccormick2[20]: - x[20] + r[20] <= 0
 mccormick2[21]: - x[21] + r[21] <= 0
 mccormick2[22]: - x[22] + r[22] <= 0
 mccormick2[23]: - x[23] + r[23] <= 0
 mccormick2[24]: - x[24] + r[24] <= 0
 mccormick2[25]: - x[25] + r[25] <= 0
 mccormick2[26]: - x[26] + r[26] <= 0
 mccormick2[27]: - x[27] + r[27] <= 0
 mccormick2[28]: - x[28] + r[28] <= 0
 mccormick2[29]: - x[29] + r[29] <= 0
 mccormick2[30]: - x[30] + r[30] <= 0
 mccormick2[31]: - x[31] + r[31] <= 0
 mccormick2[32]: - x[32] + r[32] <= 0
 mccormick2[33]: - x[33] + r[33] <= 0
 mccormick2[34]: - x[34] + r[34] <= 0
 mccormick2[35]: - x[35] + r[35] <= 0
 mccormick2[36]: - x[36] + r[36] <= 0
 mccormick2[37]: - x[37] + r[37] <= 0
 mccormick2[38]: - x[38] + r[38] <= 0
 mccormick2[39]: - x[39] + r[39] <= 0
 mccormick2[40]: - x[40] + r[40] <= 0
 mccormick2[41]: - x[41] + r[41] <= 0
 mccormick2[42]: - x[42] + r[42] <= 0
 mccormick2[43]: - x[43] + r[43] <= 0
 mccormick2[44]: - x[44] + r[44] <= 0
 mccormick2[45]: - x[45] + r[45] <= 0
 mccormick2[46]: - x[46] + r[46] <= 0
 mccormick2[47]: - x[47] + r[47] <= 0
 mccormick2[48]: - x[48] + r[48] <= 0
 mccormick2[49]: - x[49] + r[49] <= 0
 mccormick2[50]: - x[50] + r[50] <= 0
 mccormick2[51]: - x[51] + r[51] <= 0
 mccormick2[52]: - x[52] + r[52] <= 0
 mccormick2[53]: - x[53] + r[53] <= 0
 mccormick2[54]: - x[54] + r[54] <= 0
 mccormick2[55]: - x[55] + r[55] <= 0
 mccormick2[56]: - x[56] + r[56] <= 0
 mccormick2[57]: - x[57] + r[57] <= 0
 mccormick2[58]: - x[58] + r[58] <= 0
 mccormick2[59]: - x[59] + r[59] <= 0
 mccormick2[60]: - x[60] + r[60] <= 0
 mccormick2[61]: - x[61] + r[61] <= 0
 mccormick2[62]: - x[62] + r[62] <= 0
 mccormick2[63]: - x[63] + r[63] <= 0
 mccormick2[64]: - x[64] + r[64] <= 0
 mccormick2[65]: - x[65] + r[65] <= 0
 mccormick2[66]: - x[66] + r[66] <= 0
 mccormick2[67]: - x[67] + r[67] <= 0
 mccormick2[68]: - x[68] + r[68] <= 0
 mccormick2[69]: - x[69] + r[69] <= 0
 mccormick2[70]: - x[70] + r[70] <= 0
 mccormick2[71]: - x[71] + r[71] <= 0
 mccormick2[72]: - x[72] + r[72] <= 0
 mccormick2[73]: - x[73] + r[73] <= 0
 mccormick2[74]: - x[74] + r[74] <= 0
 mccormick2[75]: - x[75] + r[75] <= 0
 mccormick2[76]: - x[76] + r[76] <= 0
 mccormick2[77]: - x[77] + r[77] <= 0
 mccormick2[78]: - x[78] + r[78] <= 0
 mccormick2[79]: - x[79] + r[79] <= 0
 mccormick2[80]: - x[80] + r[80] <= 0
 mccormick2[81]: - x[81] + r[81] <= 0
 mccormick2[82]: - x[82] + r[82] <= 0
 mccormick2[83]: - x[83] + r[83] <= 0
 mccormick2[84]: - x[84] + r[84] <= 0
 mccormick2[85]: - x[85] + r[85] <= 0
 mccormick2[86]: - x[86] + r[86] <= 0
 mccormick2[87]: - x[87] + r[87] <= 0
 mccormick2[88]: - x[88] + r[88] <= 0
 mccormick2[89]: - x[89] + r[89] <= 0
 mccormick2[90]: - x[90] + r[90] <= 0
 mccormick2[91]: - x[91] + r[91] <= 0
 mccormick2[92]: - x[92] + r[92] <= 0
 mccormick2[93]: - x[93] + r[93] <= 0
 mccormick2[94]: - x[94] + r[94] <= 0
 mccormick2[95]: - x[95] + r[95] <= 0
 mccormick2[96]: - x[96] + r[96] <= 0
 mccormick2[97]: - x[97] + r[97] <= 0
 mccormick2[98]: - x[98] + r[98] <= 0
 mccormick2[99]: - x[99] + r[99] <= 0
 mccormick2[100]: - x[100] + r[100] <= 0
 mccormick2[101]: - x[101] + r[101] <= 0
 mccormick2[102]: - x[102] + r[102] <= 0
 mccormick2[103]: - x[103] + r[103] <= 0
 mccormick2[104]: - x[104] + r[104] <= 0
 mccormick2[105]: - x[105] + r[105] <= 0
 mccormick2[106]: - x[106] + r[106] <= 0
 mccormick2[107]: - x[107] + r[107] <= 0
 mccormick2[108]: - x[108] + r[108] <= 0
 mccormick2[109]: - x[109] + r[109] <= 0
 mccormick2[110]: - x[110] + r[110] <= 0
 mccormick2[111]: - x[111] + r[111] <= 0
 mccormick2[112]: - x[112] + r[112] <= 0
 mccormick2[113]: - x[113] + r[113] <= 0
 mccormick2[114]: - x[114] + r[114] <= 0
 mccormick2[115]: - x[115] + r[115] <= 0
 mccormick2[116]: - x[116] + r[116] <= 0
 mccormick2[117]: - x[117] + r[117] <= 0
 mccormick2[118]: - x[118] + r[118] <= 0
 mccormick2[119]: - x[119] + r[119] <= 0
 mccormick2[120]: - x[120] + r[120] <= 0
 mccormick2[121]: - x[121] + r[121] <= 0
 mccormick2[122]: - x[122] + r[122] <= 0
 mccormick2[123]: - x[123] + r[123] <= 0
 mccormick2[124]: - x[124] + r[124] <= 0
 mccormick2[125]: - x[125] + r[125] <= 0
 mccormick2[126]: - x[126] + r[126] <= 0
 mccormick2[127]: - x[127] + r[127] <= 0
 mccormick2[128]: - x[128] + r[128] <= 0
 mccormick2[129]: - x[129] + r[129] <= 0
 mccormick3[0]: x[0] + u[0] - r[0] <= 1
 mccormick3[1]: x[1] + u[1] - r[1] <= 1
 mccormick3[2]: x[2] + u[2] - r[2] <= 1
 mccormick3[3]: x[3] + u[3] - r[3] <= 1
 mccormick3[4]: x[4] + u[4] - r[4] <= 1
 mccormick3[5]: x[5] + u[5] - r[5] <= 1
 mccormick3[6]: x[6] + u[6] - r[6] <= 1
 mccormick3[7]: x[7] + u[7] - r[7] <= 1
 mccormick3[8]: x[8] + u[8] - r[8] <= 1
 mccormick3[9]: x[9] + u[9] - r[9] <= 1
 mccormick3[10]: x[10] + u[10] - r[10] <= 1
 mccormick3[11]: x[11] + u[11] - r[11] <= 1
 mccormick3[12]: x[12] + u[12] - r[12] <= 1
 mccormick3[13]: x[13] + u[13] - r[13] <= 1
 mccormick3[14]: x[14] + u[14] - r[14] <= 1
 mccormick3[15]: x[15] + u[15] - r[15] <= 1
 mccormick3[16]: x[16] + u[16] - r[16] <= 1
 mccormick3[17]: x[17] + u[17] - r[17] <= 1
 mccormick3[18]: x[18] + u[18] - r[18] <= 1
 mccormick3[19]: x[19] + u[19] - r[19] <= 1
 mccormick3[20]: x[20] + u[20] - r[20] <= 1
 mccormick3[21]: x[21] + u[21] - r[21] <= 1
 mccormick3[22]: x[22] + u[22] - r[22] <= 1
 mccormick3[23]: x[23] + u[23] - r[23] <= 1
 mccormick3[24]: x[24] + u[24] - r[24] <= 1
 mccormick3[25]: x[25] + u[25] - r[25] <= 1
 mccormick3[26]: x[26] + u[26] - r[26] <= 1
 mccormick3[27]: x[27] + u[27] - r[27] <= 1
 mccormick3[28]: x[28] + u[28] - r[28] <= 1
 mccormick3[29]: x[29] + u[29] - r[29] <= 1
 mccormick3[30]: x[30] + u[30] - r[30] <= 1
 mccormick3[31]: x[31] + u[31] - r[31] <= 1
 mccormick3[32]: x[32] + u[32] - r[32] <= 1
 mccormick3[33]: x[33] + u[33] - r[33] <= 1
 mccormick3[34]: x[34] + u[34] - r[34] <= 1
 mccormick3[35]: x[35] + u[35] - r[35] <= 1
 mccormick3[36]: x[36] + u[36] - r[36] <= 1
 mccormick3[37]: x[37] + u[37] - r[37] <= 1
 mccormick3[38]: x[38] + u[38] - r[38] <= 1
 mccormick3[39]: x[39] + u[39] - r[39] <= 1
 mccormick3[40]: x[40] + u[40] - r[40] <= 1
 mccormick3[41]: x[41] + u[41] - r[41] <= 1
 mccormick3[42]: x[42] + u[42] - r[42] <= 1
 mccormick3[43]: x[43] + u[43] - r[43] <= 1
 mccormick3[44]: x[44] + u[44] - r[44] <= 1
 mccormick3[45]: x[45] + u[45] - r[45] <= 1
 mccormick3[46]: x[46] + u[46] - r[46] <= 1
 mccormick3[47]: x[47] + u[47] - r[47] <= 1
 mccormick3[48]: x[48] + u[48] - r[48] <= 1
 mccormick3[49]: x[49] + u[49] - r[49] <= 1
 mccormick3[50]: x[50] + u[50] - r[50] <= 1
 mccormick3[51]: x[51] + u[51] - r[51] <= 1
 mccormick3[52]: x[52] + u[52] - r[52] <= 1
 mccormick3[53]: x[53] + u[53] - r[53] <= 1
 mccormick3[54]: x[54] + u[54] - r[54] <= 1
 mccormick3[55]: x[55] + u[55] - r[55] <= 1
 mccormick3[56]: x[56] + u[56] - r[56] <= 1
 mccormick3[57]: x[57] + u[57] - r[57] <= 1
 mccormick3[58]: x[58] + u[58] - r[58] <= 1
 mccormick3[59]: x[59] + u[59] - r[59] <= 1
 mccormick3[60]: x[60] + u[60] - r[60] <= 1
 mccormick3[61]: x[61] + u[61] - r[61] <= 1
 mccormick3[62]: x[62] + u[62] - r[62] <= 1
 mccormick3[63]: x[63] + u[63] - r[63] <= 1
 mccormick3[64]: x[64] + u[64] - r[64] <= 1
 mccormick3[65]: x[65] + u[65] - r[65] <= 1
 mccormick3[66]: x[66] + u[66] - r[66] <= 1
 mccormick3[67]: x[67] + u[67] - r[67] <= 1
 mccormick3[68]: x[68] + u[68] - r[68] <= 1
 mccormick3[69]: x[69] + u[69] - r[69] <= 1
 mccormick3[70]: x[70] + u[70] - r[70] <= 1
 mccormick3[71]: x[71] + u[71] - r[71] <= 1
 mccormick3[72]: x[72] + u[72] - r[72] <= 1
 mccormick3[73]: x[73] + u[73] - r[73] <= 1
 mccormick3[74]: x[74] + u[74] - r[74] <= 1
 mccormick3[75]: x[75] + u[75] - r[75] <= 1
 mccormick3[76]: x[76] + u[76] - r[76] <= 1
 mccormick3[77]: x[77] + u[77] - r[77] <= 1
 mccormick3[78]: x[78] + u[78] - r[78] <= 1
 mccormick3[79]: x[79] + u[79] - r[79] <= 1
 mccormick3[80]: x[80] + u[80] - r[80] <= 1
 mccormick3[81]: x[81] + u[81] - r[81] <= 1
 mccormick3[82]: x[82] + u[82] - r[82] <= 1
 mccormick3[83]: x[83] + u[83] - r[83] <= 1
 mccormick3[84]: x[84] + u[84] - r[84] <= 1
 mccormick3[85]: x[85] + u[85] - r[85] <= 1
 mccormick3[86]: x[86] + u[86] - r[86] <= 1
 mccormick3[87]: x[87] + u[87] - r[87] <= 1
 mccormick3[88]: x[88] + u[88] - r[88] <= 1
 mccormick3[89]: x[89] + u[89] - r[89] <= 1
 mccormick3[90]: x[90] + u[90] - r[90] <= 1
 mccormick3[91]: x[91] + u[91] - r[91] <= 1
 mccormick3[92]: x[92] + u[92] - r[92] <= 1
 mccormick3[93]: x[93] + u[93] - r[93] <= 1
 mccormick3[94]: x[94] + u[94] - r[94] <= 1
 mccormick3[95]: x[95] + u[95] - r[95] <= 1
 mccormick3[96]: x[96] + u[96] - r[96] <= 1
 mccormick3[97]: x[97] + u[97] - r[97] <= 1
 mccormick3[98]: x[98] + u[98] - r[98] <= 1
 mccormick3[99]: x[99] + u[99] - r[99] <= 1
 mccormick3[100]: x[100] + u[100] - r[100] <= 1
 mccormick3[101]: x[101] + u[101] - r[101] <= 1
 mccormick3[102]: x[102] + u[102] - r[102] <= 1
 mccormick3[103]: x[103] + u[103] - r[103] <= 1
 mccormick3[104]: x[104] + u[104] - r[104] <= 1
 mccormick3[105]: x[105] + u[105] - r[105] <= 1
 mccormick3[106]: x[106] + u[106] - r[106] <= 1
 mccormick3[107]: x[107] + u[107] - r[107] <= 1
 mccormick3[108]: x[108] + u[108] - r[108] <= 1
 mccormick3[109]: x[109] + u[109] - r[109] <= 1
 mccormick3[110]: x[110] + u[110] - r[110] <= 1
 mccormick3[111]: x[111] + u[111] - r[111] <= 1
 mccormick3[112]: x[112] + u[112] - r[112] <= 1
 mccormick3[113]: x[113] + u[113] - r[113] <= 1
 mccormick3[114]: x[114] + u[114] - r[114] <= 1
 mccormick3[115]: x[115] + u[115] - r[115] <= 1
 mccormick3[116]: x[116] + u[116] - r[116] <= 1
 mccormick3[117]: x[117] + u[117] - r[117] <= 1
 mccormick3[118]: x[118] + u[118] - r[118] <= 1
 mccormick3[119]: x[119] + u[119] - r[119] <= 1
 mccormick3[120]: x[120] + u[120] - r[120] <= 1
 mccormick3[121]: x[121] + u[121] - r[121] <= 1
 mccormick3[122]: x[122] + u[122] - r[122] <= 1
 mccormick3[123]: x[123] + u[123] - r[123] <= 1
 mccormick3[124]: x[124] + u[124] - r[124] <= 1
 mccormick3[125]: x[125] + u[125] - r[125] <= 1
 mccormick3[126]: x[126] + u[126] - r[126] <= 1
 mccormick3[127]: x[127] + u[127] - r[127] <= 1
 mccormick3[128]: x[128] + u[128] - r[128] <= 1
 mccormick3[129]: x[129] + u[129] - r[129] <= 1
Bounds
Binaries
 x[0] x[1] x[2] x[3] x[4] x[5] x[6] x[7] x[8] x[9] x[10] x[11] x[12] x[13]
 x[14] x[15] x[16] x[17] x[18] x[19] x[20] x[21] x[22] x[23] x[24] x[25]
 x[26] x[27] x[28] x[29] x[30] x[31] x[32] x[33] x[34] x[35] x[36] x[37]
 x[38] x[39] x[40] x[41] x[42] x[43] x[44] x[45] x[46] x[47] x[48] x[49]
 x[50] x[51] x[52] x[53] x[54] x[55] x[56] x[57] x[58] x[59] x[60] x[61]
 x[62] x[63] x[64] x[65] x[66] x[67] x[68] x[69] x[70] x[71] x[72] x[73]
 x[74] x[75] x[76] x[77] x[78] x[79] x[80] x[81] x[82] x[83] x[84] x[85]
 x[86] x[87] x[88] x[89] x[90] x[91] x[92] x[93] x[94] x[95] x[96] x[97]
 x[98] x[99] x[100] x[101] x[102] x[103] x[104] x[105] x[106] x[107] x[108]
 x[109] x[110] x[111] x[112] x[113] x[114] x[115] x[116] x[117] x[118]
 x[119] x[120] x[121] x[122] x[123] x[124] x[125] x[126] x[127] x[128]
 x[129] u[0] u[1] u[2] u[3] u[4] u[5] u[6] u[7] u[8] u[9] u[10] u[11] u[12]
 u[13] u[14] u[15] u[16] u[17] u[18] u[19] u[20] u[21] u[22] u[23] u[24]
 u[25] u[26] u[27] u[28] u[29] u[30] u[31] u[32] u[33] u[34] u[35] u[36]
 u[37] u[38] u[39] u[40] u[41] u[42] u[43] u[44] u[45] u[46] u[47] u[48]
 u[49] u[50] u[51] u[52] u[53] u[54] u[55] u[56] u[57] u[58] u[59] u[60]
 u[61] u[62] u[63] u[64] u[65] u[66] u[67] u[68] u[69] u[70] u[71] u[72]
 u[73] u[74] u[75] u[76] u[77] u[78] u[79] u[80] u[81] u[82] u[83] u[84]
 u[85] u[86] u[87] u[88] u[89] u[90] u[91] u[92] u[93] u[94] u[95] u[96]
 u[97] u[98] u[99] u[100] u[101] u[102] u[103] u[104] u[105] u[106] u[107]
 u[108] u[109] u[110] u[111] u[112] u[113] u[114] u[115] u[116] u[117]
 u[118] u[119] u[120] u[121] u[122] u[123] u[124] u[125] u[126] u[127]
 u[128] u[129] r[0] r[1] r[2] r[3] r[4] r[5] r[6] r[7] r[8] r[9] r[10]
 r[11] r[12] r[13] r[14] r[15] r[16] r[17] r[18] r[19] r[20] r[21] r[22]
 r[23] r[24] r[25] r[26] r[27] r[28] r[29] r[30] r[31] r[32] r[33] r[34]
 r[35] r[36] r[37] r[38] r[39] r[40] r[41] r[42] r[43] r[44] r[45] r[46]
 r[47] r[48] r[49] r[50] r[51] r[52] r[53] r[54] r[55] r[56] r[57] r[58]
 r[59] r[60] r[61] r[62] r[63] r[64] r[65] r[66] r[67] r[68] r[69] r[70]
 r[71] r[72] r[73] r[74] r[75] r[76] r[77] r[78] r[79] r[80] r[81] r[82]
 r[83] r[84] r[85] r[86] r[87] r[88] r[89] r[90] r[91] r[92] r[93] r[94]
 r[95] r[96] r[97] r[98] r[99] r[100] r[101] r[102] r[103] r[104] r[105]
 r[106] r[107] r[108] r[109] r[110] r[111] r[112] r[113] r[114] r[115]
 r[116] r[117] r[118] r[119] r[120] r[121] r[122] r[123] r[124] r[125]
 r[126] r[127] r[128] r[129]
End
