instances/knapsack/discrete_knapsack_uncertainty/knapsack_130_3.kp
29632
130
598

55 5.5 9
23 2.3 66
29 2.9 19
82 8.2 83
15 1.5 25
29 2.9 48
80 8.0 85
35 3.5 51
76 7.6 62
61 6.1 38
43 4.3 94
30 3.0 34
3 0.3 2
23 2.3 1
64 6.4 94
4 0.4 23
40 4.0 9
55 5.5 25
56 5.6 62
13 1.3 97
68 6.8 9
51 5.1 50
67 6.7 27
46 4.6 63
64 6.4 92
95 9.5 70
29 2.9 71
23 2.3 87
81 8.1 77
26 2.6 76
21 2.1 92
35 3.5 23
63 6.3 19
12 1.2 94
7 0.7 83
84 8.4 20
59 5.9 12
88 8.8 62
91 9.1 46
74 7.4 99
50 5.0 95
21 2.1 17
41 4.1 77
9 0.9 22
90 9.0 10
58 5.8 2
89 8.9 60
57 5.7 80
10 1.0 20
59 5.9 89
46 4.6 70
91 9.1 14
12 1.2 22
71 7.1 80
24 2.4 27
95 9.5 1
12 1.2 94
2 0.2 31
55 5.5 39
73 7.3 54
24 2.4 79
58 5.8 93
23 2.3 89
62 6.2 1
63 6.3 26
35 3.5 16
92 9.2 56
98 9.8 21
11 1.1 36
65 6.5 89
13 1.3 52
97 9.7 66
21 2.1 44
34 3.4 5
75 7.5 74
32 3.2 85
26 2.6 25
50 5.0 16
40 4.0 51
6 0.6 71
41 4.1 78
21 2.1 1
18 1.8 77
5 0.5 61
49 4.9 12
97 9.7 80
87 8.7 41
27 2.7 70
29 2.9 59
10 1.0 14
100 10.0 89
44 4.4 1
68 6.8 9
39 3.9 32
43 4.3 19
96 9.6 54
12 1.2 40
92 9.2 99
83 8.3 48
31 3.1 28
40 4.0 8
87 8.7 77
1 0.1 18
27 2.7 89
32 3.2 22
45 4.5 54
42 4.2 93
22 2.2 76
70 7.0 81
52 5.2 16
78 7.8 29
66 6.6 1
100 10.0 57
84 8.4 23
48 4.8 25
6 0.6 44
66 6.6 34
48 4.8 88
12 1.2 93
16 1.6 18
91 9.1 21
36 3.6 54
63 6.3 57
42 4.2 66
48 4.8 55
74 7.4 68
15 1.5 36
47 4.7 1
66 6.6 19
82 8.2 24

38066
602

[4.5611703862475 2.287279096278156 2.878837067406798 3.1834614130890024 0.3434844277660919 0.37827983172757024 1.5003042802243003 0.038066375034390844 3.6685788691002688 2.929756137313154 3.7114330813796097 4.355472365009716 3.5746032205996108 3.3342388086587853 2.1698438214098226 0.7454979620826591 3.9471224143865693 2.7676261071657313 1.0907413584174084 0.6224108935850784 3.49681789996889 1.8084290118237913 2.0719417549878396 3.4528633850870585 1.5319852467072945 4.362423000690219 3.7798885067428087 3.294262289980555 1.2980045686741937 1.339333676265087 1.949015595737311 4.264937495194167 0.6128268074201372 0.032722884919852493 1.6297998402999403 4.5002959366007955 2.0121465516609924 2.24249824303989 2.448216272229456 0.4874336676804482 2.7153917430373227 0.8038569494959751 3.8698923865657684 0.15792642932851636 0.00588597018196224 4.426470545689985 3.310986275729995 0.29503343429878914 3.497607860985416 4.445034896965034 2.845809352382501 3.265139746538412 0.5381975979400022 0.8095055184238631 3.5701823863068176 0.37440850861472286 0.08912228534834582 4.625541495814528 0.7449587962237412 0.6778928198777235 2.4637494659312287 0.9431618512195905 0.5323499410617173 4.237936605775712 4.016782936529608 0.8548329604645454 0.2128024470573081 3.7282561908563427 3.8910248684910815 2.5776765745228096 1.961249887253086 3.4694770718499184 4.38128901872999 2.6309984083611764 4.595344073967454 3.8018911344699147 1.0148393327167804 0.766891201202935 0.6811035135076997 2.5115931442205577 4.086304035867375 0.35101227730932755 3.3059323908205904 1.9017187469969306 3.029862074739079 0.8279090609046473 3.1864562456778573 2.3275650994604344 1.9735941175319947 2.058675443540639 3.349978851400958 3.34268293959333 3.6889581772631606 3.162775073324079 1.5378359479898047 1.3320581559000975 4.04857515350964 4.414850408603914 2.911741876576474 4.419923739839023 1.6276380099539156 1.7494184257283867 2.365220533000676 3.790187251623128 0.6101881152780361 2.395516315985173 0.3156680424185347 0.5162920865031112 3.4171360895395635 0.3189101409306253 3.4393418043525155 4.3738927383806825 4.522219863729719 1.8324832664528523 2.8022507400229855 2.6111637754450348 1.2120963890966336 1.3998236489823372 1.4174957757418238 0.6286121229253885 4.630051300519378 4.5069452859089845 3.349821011558506 2.790967915252462 2.7616752467487946 0.11146262259303014 1.2614110356854025 2.0174816634772466 2.3371135768576496 4.030489415720245]

[84 48 22 71 32 26 53 76 45 98 56 55 20 96 57 13 77 12 29 86 89 32 52 11 45 92 46 28 94 63 30 4 88 17 12 73 48 65 40 83 35 86 86 46 83 71 86 26 23 48 39 24 85 12 81 76 1 11 44 6 25 11 68 43 44 8 17 63 88 18 18 42 26 23 88 21 75 91 1 75 70 42 47 74 90 30 84 100 78 23 69 37 97 24 96 29 77 53 36 24 77 4 10 44 93 78 23 7 19 65 31 15 37 33 5 87 23 25 65 73 80 85 44 27 49 35 20 20 3 87]
